c NeuroCodeBench 2.0 CNF formula with verdict Unsat
p cnf 72 131
1 -41 37 -58 -39 60 -2 0
1 41 5 -10 -55 0
1 41 5 10 -12 42 -40 67 -48 0
-1 -47 -26 -43 0
-1 -47 -26 43 19 -32 27 0
-1 -47 26 12 -51 -49 -60 38 53 0
-1 -47 26 12 51 49 -25 20 0
1 41 -5 55 8 59 0
-1 -47 26 -12 62 -71 -31 54 0
1 41 5 -10 55 -11 16 45 39 0
-1 -47 26 -12 -62 -42 43 -18 0
-1 47 13 -14 70 -22 53 64 -29 0
-1 -47 26 12 -51 49 -42 -18 0
-1 -47 -26 43 -19 66 65 -27 -53 0
-1 -47 -26 43 -19 66 65 27 -60 -28 38 0
-1 47 13 -14 70 22 23 -2 0
-1 -47 -26 43 -19 66 -65 -21 0
1 41 5 10 -12 42 -40 -67 0
1 41 -5 -55 31 -32 -60 0
-1 47 13 14 43 -65 -41 0
1 41 -5 -55 -31 -63 27 39 44 0
1 -41 -37 27 61 0
1 41 5 10 12 -59 0
1 41 5 10 -12 -42 -69 0
1 -41 37 -58 39 47 14 0
1 41 -5 -55 -31 63 -37 -38 0
1 -41 37 -58 -39 -60 0
-1 -47 26 12 51 -49 -20 10 0
1 41 -5 -55 31 32 0
1 41 5 10 -12 -42 69 71 0
-1 47 13 -14 -70 -23 52 0
1 41 -5 -55 -31 -63 27 -39 0
-1 -47 -26 43 -19 -66 -41 0
1 -41 -37 -27 -4 23 0
1 -41 37 -58 39 -47 54 0
-1 -47 -26 43 -19 -66 41 0
1 41 5 -10 55 -11 16 45 -39 38 0
1 -41 -37 27 -61 -67 0
1 -41 37 -58 -39 60 2 6 0
1 41 5 10 12 59 67 0
-1 47 13 -14 70 22 23 2 0
-1 -47 -26 43 19 32 0
1 -41 37 58 51 0
-1 -47 26 -12 -62 42 70 0
1 41 5 -10 55 -11 -16 -43 -9 0
-1 47 13 -14 70 -22 53 -64 0
1 41 -5 55 -8 0
-1 -47 -26 43 -19 66 65 27 -60 -28 -38 0
1 41 5 -10 55 -11 -16 -43 9 0
1 41 5 10 -12 -42 69 -71 0
-1 -47 26 12 51 -49 20 -4 54 0
1 41 5 -10 55 -11 -16 43 0
-1 -47 26 -12 62 -71 -31 -54 36 0
-1 47 13 -14 70 -22 -53 -62 -19 0
1 -41 -37 -27 4 3 63 0
-1 47 13 14 43 65 -11 0
-1 -47 26 -12 -62 -42 43 18 0
1 -41 -37 -27 4 -3 31 7 0
-1 -47 -26 43 -19 66 65 27 -60 28 0
-1 47 13 -14 70 22 -23 -27 0
-1 -47 26 12 -51 49 -42 18 0
-1 47 13 14 43 -65 41 0
-1 -47 26 -12 -62 -42 -43 48 0
1 -41 37 -58 39 47 -14 0
1 41 5 -10 55 11 0
-1 -47 26 12 -51 -49 60 0
1 -41 -37 -27 4 3 -63 0
-1 47 -13 -44 -54 23 67 8 0
1 -41 -37 -27 4 -3 -31 0
-1 47 13 -14 -70 23 0
1 41 5 10 12 59 -67 -25 0
-1 -47 26 -12 62 71 -57 0
1 -41 37 -58 -39 60 2 -6 0
-1 47 -13 -44 -54 23 67 -8 0
-1 -47 26 -12 -62 42 -70 0
1 -41 -37 -27 -4 -23 0
-1 -47 26 12 51 -49 -20 -10 46 0
1 41 -5 -55 31 -32 60 0
-1 -47 26 12 -51 49 42 0
1 -41 -37 -27 4 -3 31 -7 0
-1 -47 26 12 -51 -49 -60 38 -53 39 0
-1 -47 26 -12 -62 -42 -43 -48 0
1 41 -5 -55 -31 -63 -27 -25 -71 48 0
-1 -47 26 12 51 -49 20 4 0
-1 -47 26 12 51 49 25 0
-1 47 -13 -44 -54 23 -67 0
-1 47 13 -14 70 -22 53 64 29 0
-1 -47 26 12 51 49 -25 -20 0
1 41 -5 -55 -31 -63 27 39 -44 0
-1 47 -13 -44 54 14 0
1 -41 37 -58 39 -47 -54 0
-1 -47 26 12 -51 -49 -60 -38 0
1 41 -5 -55 -31 63 37 0
1 41 5 10 12 59 -67 25 0
-1 -47 26 -12 62 71 57 0
-1 -47 -26 43 -19 66 -65 21 0
1 41 5 -10 55 -11 16 -45 0
1 41 -5 -55 -31 -63 -27 -25 -71 -48 0
-1 -47 26 -12 62 -71 31 -9 0
-1 -47 26 12 -51 -49 -60 38 -53 -39 0
-1 47 13 14 -43 15 30 0
-1 -47 -26 43 19 -32 -27 0
-1 -47 26 12 51 -49 20 -4 -54 0
-1 47 13 -14 70 22 -23 27 0
1 41 -5 55 8 -59 0
1 41 5 -10 55 -11 16 45 -39 -38 0
-1 -47 26 -12 62 -71 -31 -54 -36 0
-1 47 13 -14 -70 -23 -52 -43 0
1 41 -5 -55 -31 -63 -27 -25 71 0
1 -41 -37 27 -61 67 0
-1 47 13 -14 70 -22 -53 62 0
-1 -47 26 12 51 -49 -20 -10 -46 0
-1 47 13 14 43 65 11 0
-1 47 13 -14 70 -22 -53 -62 19 -65 0
-1 47 13 14 -43 -15 0
-1 47 13 14 -43 15 -30 0
1 41 -5 -55 -31 -63 -27 25 0
-1 47 -13 44 67 0
1 41 5 10 -12 42 -40 67 48 0
1 41 5 10 -12 42 40 0
-1 47 -13 -44 54 -14 0
1 -41 37 58 -51 0
1 41 -5 -55 -31 63 -37 38 0
-1 47 -13 44 -67 55 0
-1 47 -13 -44 -54 -23 0
-1 47 -13 44 -67 -55 0
-1 47 13 -14 70 -22 -53 -62 19 65 0
-1 -47 -26 43 -19 66 65 -27 53 0
-1 47 13 -14 -70 -23 -52 43 0
-1 -47 26 -12 62 -71 31 9 0
-1 -47 -26 43 -19 66 65 27 60 0
